************************************************************************
file with basedata            : mm39_.bas
initial value random generator: 1060200340
************************************************************************
projects                      :  1
jobs (incl. supersource/sink ):  12
horizon                       :  74
RESOURCES
  - renewable                 :  2   R
  - nonrenewable              :  2   N
  - doubly constrained        :  0   D
************************************************************************
PROJECT INFORMATION:
pronr.  #jobs rel.date duedate tardcost  MPM-Time
    1     10      0       10        4       10
************************************************************************
PRECEDENCE RELATIONS:
jobnr.    #modes  #successors   successors
   1        1          3           2   3   4
   2        3          1           7
   3        3          3           5   7  11
   4        3          2           6  10
   5        3          2           9  10
   6        3          2           7   8
   7        3          1           9
   8        3          1          11
   9        3          1          12
  10        3          1          12
  11        3          1          12
  12        1          0        
************************************************************************
REQUESTS/DURATIONS:
jobnr. mode duration  R 1  R 2  N 1  N 2
------------------------------------------------------------------------
  1      1     0       0    0    0    0
  2      1     1       8    5   10    8
         2     5       8    4    7    7
         3     7       7    3    7    4
  3      1     3       6    7    7    6
         2     4       5    4    5    6
         3     5       4    4    1    4
  4      1     1      10    5    7    7
         2     2       6    4    6    5
         3     7       4    2    5    1
  5      1     1       8    6    8    3
         2     2       5    4    7    2
         3    10       4    1    2    1
  6      1     1       5    9    7    3
         2     1       6    9    6    3
         3     2       5    4    2    2
  7      1     2       9    3    3   10
         2     6       6    3    3   10
         3     7       3    3    2    9
  8      1     2       8    8    9    9
         2     6       6    8    8    6
         3     9       4    6    8    6
  9      1     2       7    7    4    8
         2     4       7    7    3    7
         3     8       4    7    3    7
 10      1     6      10    2    5    7
         2     6      10    3    5    5
         3    10       9    2    5    4
 11      1     4      10    7    2    3
         2     5       4    7    2    2
         3     9       3    5    1    1
 12      1     0       0    0    0    0
************************************************************************
RESOURCEAVAILABILITIES:
  R 1  R 2  N 1  N 2
   13    9   54   57
************************************************************************
